16
6 9
6 1
6 7
6 10
6 2
6 13
6 14
6 3
6 11
6 4
6 15
6 0
6 5
6 12
9 14
9 8
9 13
9 11
9 3
9 0
9 12
9 5
9 4
9 2
9 15
9 10
9 7
7 12
7 0
7 3
7 8
7 15
7 2
7 5
7 11
7 14
7 13
7 1
7 4
12 3
12 1
12 8
12 4
12 2
12 13
12 14
12 0
12 5
12 10
12 15
0 10
0 4
0 1
0 14
0 11
0 5
0 8
0 2
0 15
0 13
1 11
1 15
1 5
1 10
1 3
1 14
1 4
1 2
1 13
1 8
10 4
10 13
10 14
10 5
10 15
10 3
10 8
10 11
10 2
3 11
3 5
3 15
3 2
3 4
3 14
3 13
3 8
2 5
2 11
2 8
2 13
2 14
2 4
5 8
5 11
5 4
5 14
5 15
11 15
11 4
11 14
11 13
11 8
8 15
8 13
8 4
8 14
4 15
4 13
15 14
15 13
14 13
